Route #1: 15 8 17 42 21
Route #2: 1 32 28 29 19
Route #3: 5 39
Route #4: 10 35 45 41 23 46
Route #5: 3 13 22 38 14 31 6
Route #6: 30 11 16 24 47 26 18 4
Route #7: 20 12 9 33 36 43 49 25 2
Route #8: 34 48 40 7 37 27 44
Cost 1333